c graph2
p edge 15 36
e 1 12
e 2 13
e 3 8
e 4 11
e 5 15
e 6 7
e 7 1
e 8 2
e 9 11
e 10 8
e 11 8
e 12 11
e 13 12
e 14 7
e 15 3
e 13 15
e 5 14
e 5 4
e 15 4
e 7 4
e 3 11
e 13 10
e 3 10
e 7 13
e 9 7
e 3 14
e 7 8
e 7 2
e 10 4
e 6 2
e 13 5
e 9 10
e 6 14
e 3 13
e 14 15
e 15 6
